(set-info :smt-lib-version 2.6)
(set-logic QF_LIA)
(set-info :category "industrial")
(set-info :status sat)
(declare-fun x0 () Int)
(declare-fun x1 () Int)
(declare-fun x10 () Int)
(declare-fun x11 () Int)
(declare-fun x12 () Int)
(declare-fun x13 () Int)
(declare-fun x14 () Int)
(declare-fun x15 () Int)
(declare-fun x16 () Int)
(declare-fun x17 () Int)
(declare-fun x18 () Int)
(declare-fun x19 () Int)
(declare-fun x2 () Int)
(declare-fun x20 () Int)
(declare-fun x21 () Int)
(declare-fun x22 () Int)
(declare-fun x23 () Int)
(declare-fun x24 () Int)
(declare-fun x25 () Int)
(declare-fun x26 () Int)
(declare-fun x27 () Int)
(declare-fun x28 () Int)
(declare-fun x29 () Int)
(declare-fun x3 () Int)
(declare-fun x4 () Int)
(declare-fun x5 () Int)
(declare-fun x6 () Int)
(declare-fun x7 () Int)
(declare-fun x8 () Int)
(declare-fun x9 () Int)
(assert (let ((?v_20 (* 1 x1)) (?v_29 (* 1 x10)) (?v_38 (* 0 x23)) (?v_32 (* 0 x26)) (?v_61 (* 0 x28)) (?v_4 (* 1 x27)) (?v_17 (* 0 x5)) (?v_18 (* 0 x6)) (?v_42 (* 0 x7)) (?v_3 (* 0 x8)) (?v_13 (* 0 x10)) (?v_21 (* 0 x12)) (?v_6 (* 1 x18)) (?v_22 (* 0 x19)) (?v_8 (* 0 x2)) (?v_85 (* 1 x22)) (?v_9 (* 0 x24)) (?v_24 (* 0 x29)) (?v_39 (* 0 x9)) (?v_41 (* 1 x26)) (?v_10 (* 1 x5)) (?v_19 (* 1 x7)) (?v_11 (* 0 x0)) (?v_27 (* 0 x1)) (?v_14 (* 1 x11)) (?v_37 (* 1 x13)) (?v_64 (* 1 x15)) (?v_23 (* 0 x20)) (?v_31 (* 0 x22)) (?v_60 (* 0 x25)) (?v_16 (* 0 x4)) (?v_65 (* 1 x19)) (?v_57 (* 1 x6)) (?v_59 (* 0 x17)) (?v_35 (* 1 x25))) (let ((?v_83 (+ ?v_35 ?v_19)) (?v_58 (* 0 x11)) (?v_28 (* 0 x14)) (?v_43 (* 0 x21)) (?v_33 (* 0 x27)) (?v_34 (* 1 x2)) (?v_40 (* 1 x24)) (?v_36 (* 1 x8)) (?v_82 (* 1 x20)) (?v_49 (* 1 x21)) (?v_80 (* 1 x3)) (?v_52 (* 1 x4)) (?v_71 (* 2 x11)) (?v_89 (* 2 x18)) (?v_51 (* 0 x16)) (?v_88 (* 1 x16)) (?v_46 (* 0 x15)) (?v_56 (* 1 x23)) (?v_55 (* 1 x14)) (?v_75 (* 1 x29)) (?v_70 (* 0 x3)) (?v_66 (* 1 x9)) (?v_73 (* 0 x13)) (?v_84 (* 0 x18)) (?v_90 (* 1 x28)) (?v_81 (* 1 x17)) (?v_5 (* (- 1) x12)) (?v_12 (* (- 1) x13)) (?v_67 (* (- 1) x14)) (?v_0 (* (- 2) x4)) (?v_1 (* (- 1) x17)) (?v_53 (* (- 1) x2)) (?v_2 (* (- 1) x20)) (?v_7 (* (- 1) x21)) (?v_47 (* (- 1) x24)) (?v_25 (* (- 1) x0)) (?v_62 (* (- 1) x1)) (?v_15 (* (- 1) x23)) (?v_69 (* (- 1) x9)) (?v_26 (* (- 1) x15)) (?v_30 (* (- 1) x19)) (?v_78 (* (- 1) x27)) (?v_48 (* (- 1) x29)) (?v_79 (* (- 1) x5)) (?v_45 (* (- 1) x7)) (?v_76 (* (- 1) x10)) (?v_44 (* (- 1) x11)) (?v_68 (* (- 1) x28)) (?v_63 (* (- 1) x18)) (?v_74 (* (- 1) x4)) (?v_50 (* (- 1) x3)) (?v_54 (* (- 1) x25)) (?v_77 (* (- 1) x26)) (?v_72 (* (- 1) x6)) (?v_87 (* (- 1) x22)) (?v_86 (* (- 2) x0))) (and (<= (+ ?v_20 (+ ?v_5 (+ ?v_12 (+ ?v_67 (+ ?v_29 (+ (* (- 2) x16) (+ ?v_0 (+ ?v_1 (+ ?v_53 (+ ?v_2 (+ ?v_7 (+ ?v_38 (+ ?v_47 (+ ?v_32 (+ ?v_61 (+ ?v_4 (+ ?v_17 (+ ?v_18 (+ ?v_42 ?v_3))))))))))))))))))) (- 1)) (<= (+ ?v_25 (+ ?v_0 (+ ?v_62 (+ ?v_13 (+ ?v_21 (+ (* (- 2) x3) (+ ?v_1 (+ ?v_2 (+ ?v_6 (+ ?v_22 (+ ?v_8 (+ ?v_85 (+ ?v_9 (+ ?v_24 (+ ?v_3 (+ ?v_39 (+ ?v_41 (+ ?v_4 (+ ?v_10 ?v_19))))))))))))))))))) (- 1)) (<= (+ ?v_15 (+ ?v_69 (+ ?v_11 (+ ?v_27 (+ ?v_14 (+ ?v_5 (+ ?v_37 (+ ?v_64 (+ ?v_6 (+ ?v_7 (+ ?v_8 (+ ?v_23 (+ ?v_31 (+ ?v_9 (+ ?v_60 (+ ?v_16 (+ ?v_65 (+ ?v_10 ?v_57)))))))))))))))))) 0) (<= (+ ?v_11 (+ ?v_5 (+ ?v_12 (+ ?v_26 (+ ?v_13 (+ ?v_14 (+ (* (- 1) x16) (+ ?v_30 (+ ?v_15 (+ ?v_78 (+ ?v_48 (+ ?v_59 (+ ?v_8 (+ ?v_9 (+ ?v_16 (+ ?v_17 (+ ?v_18 ?v_83))))))))))))))))) 1) (<= (+ ?v_79 (+ ?v_45 (+ ?v_20 (+ ?v_58 (+ ?v_21 (+ ?v_28 (+ (* 2 x10) (+ ?v_1 (+ ?v_22 (+ ?v_23 (+ ?v_43 (+ ?v_33 (+ ?v_24 (+ ?v_16 (+ ?v_34 (+ ?v_40 (+ ?v_36 (* 2 x3)))))))))))))))))) 1) (<= (+ ?v_25 (+ ?v_26 (+ ?v_27 (+ ?v_21 (+ ?v_28 (+ ?v_29 (+ ?v_1 (+ ?v_30 (+ ?v_31 (+ ?v_82 (+ ?v_9 (+ ?v_32 (+ ?v_33 (+ ?v_34 (+ ?v_49 (+ ?v_35 (+ ?v_80 (+ ?v_52 ?v_36)))))))))))))))))) (- 1)) (<= (+ ?v_0 (+ ?v_76 (+ ?v_26 (+ ?v_28 (+ ?v_71 (+ ?v_37 (+ ?v_89 (+ ?v_30 (+ ?v_7 (+ ?v_51 (+ ?v_31 (+ ?v_38 (+ ?v_3 (+ ?v_39 (+ ?v_40 (+ ?v_41 ?v_18)))))))))))))))) (- 1)) (<= (+ (* (- 2) x26) (+ ?v_27 (+ ?v_44 (+ ?v_68 (+ ?v_23 (+ ?v_38 (+ ?v_16 (+ ?v_17 (+ ?v_42 (+ ?v_3 (+ ?v_39 (+ (* 1 x12) (+ ?v_37 (+ ?v_6 (+ ?v_30 (+ ?v_43 (+ ?v_88 ?v_4))))))))))))))))) 1) (<= (+ (* (- 2) x28) (+ ?v_25 (+ ?v_27 (+ ?v_44 (+ ?v_46 (+ ?v_63 (+ ?v_30 (+ ?v_23 (+ ?v_7 (+ ?v_56 (+ (* 2 x22) (+ ?v_74 (+ ?v_45 (+ ?v_17 (+ ?v_40 (+ ?v_35 ?v_50)))))))))))))))) 0) (<= (+ ?v_25 (+ ?v_27 (+ ?v_5 (+ ?v_46 (+ ?v_2 (+ ?v_38 (+ ?v_47 (+ ?v_54 (+ ?v_33 (+ ?v_48 (+ ?v_42 (+ ?v_3 (+ ?v_29 (+ ?v_55 (+ ?v_49 (+ ?v_41 (+ (* 2 x2) (+ ?v_50 (+ ?v_51 ?v_52))))))))))))))))))) 1) (<= (+ ?v_11 (+ ?v_27 (+ ?v_53 (+ ?v_2 (+ ?v_54 (+ ?v_45 (+ ?v_21 (+ ?v_37 (+ ?v_55 (+ ?v_51 (+ ?v_33 (+ ?v_16 (+ ?v_3 (+ ?v_6 (+ ?v_49 (+ ?v_56 (+ ?v_75 ?v_57))))))))))))))))) 0) (<= (+ ?v_27 (+ ?v_13 (+ ?v_58 (+ ?v_37 (+ ?v_51 (+ ?v_59 (+ ?v_6 (+ ?v_22 (+ ?v_31 (+ ?v_38 (+ ?v_9 (+ ?v_60 (+ ?v_32 (+ ?v_33 (+ ?v_61 (+ ?v_24 (+ ?v_70 (+ ?v_16 (+ ?v_18 ?v_66))))))))))))))))))) 0) (<= (+ ?v_11 (+ ?v_62 (+ ?v_63 (+ ?v_2 (+ ?v_15 (+ ?v_13 (+ ?v_37 (+ ?v_64 (+ ?v_50 (+ ?v_51 (+ ?v_59 (+ ?v_43 (+ ?v_33 (+ ?v_61 (+ ?v_52 (+ ?v_17 (+ ?v_3 (+ ?v_65 (+ ?v_41 (+ ?v_66 (* 2 x6))))))))))))))))))))) 0) (<= (+ ?v_11 (+ ?v_67 (+ ?v_26 (+ ?v_27 (+ ?v_73 (+ ?v_29 (+ ?v_14 (+ (* (- 2) x19) (+ ?v_7 (+ ?v_77 (+ ?v_68 (+ ?v_72 (+ ?v_69 (+ ?v_51 (+ ?v_59 (+ ?v_31 (+ ?v_24 (+ ?v_35 (+ ?v_70 (+ ?v_52 (+ ?v_17 (+ ?v_19 (* 2 x8))))))))))))))))))))))) (- 1)) (<= (+ ?v_68 (+ ?v_11 (+ ?v_71 (+ ?v_72 (+ ?v_73 (+ ?v_28 (+ ?v_51 (+ ?v_84 (+ ?v_22 (+ (* 2 x20) (+ ?v_43 (+ ?v_31 (+ ?v_56 (+ ?v_24 (+ ?v_42 (+ ?v_41 (+ ?v_4 (+ ?v_52 (+ ?v_36 ?v_66))))))))))))))))))) (- 1)) (<= (+ (* 1 x0) (+ (* (- 2) x8) (+ ?v_67 (+ ?v_47 (+ ?v_74 (+ ?v_45 (+ ?v_13 (+ ?v_58 (+ ?v_37 (+ ?v_51 (+ ?v_6 (+ ?v_22 (+ ?v_23 (+ ?v_43 (+ ?v_31 (+ ?v_38 (+ ?v_32 (+ ?v_33 (+ ?v_17 (+ ?v_18 (+ ?v_34 (+ ?v_90 (+ ?v_75 (+ ?v_70 ?v_66)))))))))))))))))))))))) 1) (<= (+ ?v_11 (+ ?v_76 (+ ?v_58 (+ ?v_5 (+ ?v_46 (+ ?v_87 (+ ?v_47 (+ ?v_77 (+ ?v_78 (+ ?v_79 (+ ?v_37 (+ ?v_51 (+ ?v_43 (+ ?v_60 (+ ?v_18 (+ ?v_42 (+ ?v_81 (+ ?v_34 (+ (* 2 x23) (+ (* 2 x29) ?v_80)))))))))))))))))))) 0) (<= (+ (* (- 2) x24) (+ ?v_58 (+ ?v_55 (+ (* (- 2) x6) (+ ?v_54 (+ ?v_48 (+ ?v_45 (+ ?v_29 (+ ?v_51 (+ ?v_8 (+ ?v_43 (+ ?v_31 (+ ?v_32 (+ ?v_4 (+ ?v_70 (+ ?v_17 (+ ?v_3 ?v_81))))))))))))))))) 0) (<= (+ ?v_27 (+ (* (- 2) x11) (+ (* (- 2) x29) (+ ?v_47 (+ ?v_21 (+ ?v_28 (+ ?v_51 (+ ?v_22 (+ ?v_23 (+ ?v_38 (+ ?v_32 (+ ?v_16 (+ ?v_42 (+ ?v_3 (+ ?v_81 (+ ?v_49 (+ ?v_80 ?v_66))))))))))))))))) 1) (<= (+ ?v_20 (+ ?v_76 (+ ?v_67 (+ ?v_14 (+ ?v_21 (+ ?v_6 (+ (* 2 x13) (+ ?v_30 (+ ?v_53 (+ ?v_82 (+ ?v_7 (+ ?v_72 (+ ?v_51 (+ ?v_60 (+ ?v_3 (+ ?v_81 (+ ?v_40 (+ ?v_41 (+ ?v_80 ?v_10))))))))))))))))))) 0) (<= (+ ?v_86 (+ ?v_27 (+ ?v_76 (+ ?v_67 (+ ?v_64 (+ ?v_15 (+ ?v_47 (+ ?v_78 (+ ?v_74 (+ ?v_69 (+ ?v_58 (+ ?v_63 (+ ?v_59 (+ ?v_61 (+ ?v_17 (+ ?v_18 (+ ?v_3 (+ ?v_65 (+ ?v_34 ?v_83))))))))))))))))))) 0) (<= (+ ?v_69 (+ ?v_11 (+ ?v_27 (+ ?v_13 (+ ?v_58 (+ ?v_21 (+ ?v_84 (+ ?v_22 (+ ?v_8 (+ ?v_38 (+ ?v_85 (+ ?v_40 (+ ?v_60 (+ ?v_32 (+ ?v_61 (+ ?v_16 (+ ?v_42 ?v_81))))))))))))))))) 0) (<= (+ ?v_86 (+ ?v_67 (+ ?v_20 (+ ?v_58 (+ ?v_63 (+ ?v_87 (+ ?v_15 (+ ?v_47 (+ ?v_37 (+ (* (- 2) x25) (+ ?v_8 (+ ?v_32 (+ ?v_16 (+ ?v_36 (+ (* 2 x16) (+ ?v_81 (* 2 x9))))))))))))))))) 1) (<= (+ ?v_11 (+ (* (- 2) x10) (+ ?v_2 (+ ?v_28 (+ ?v_46 (+ ?v_37 (+ ?v_7 (+ ?v_38 (+ ?v_77 (+ ?v_78 (+ ?v_61 (+ ?v_16 (+ ?v_72 (+ ?v_22 (+ ?v_42 (+ ?v_88 (+ ?v_81 ?v_34))))))))))))))))) 0) (<= (+ (* (- 1) x8) (+ ?v_27 (+ ?v_21 (+ ?v_73 (+ ?v_46 (+ ?v_23 (+ ?v_43 (+ ?v_60 (+ ?v_17 (+ ?v_18 (+ ?v_39 (+ ?v_29 (+ ?v_81 (+ ?v_89 (+ ?v_65 (+ ?v_34 (+ ?v_40 (+ ?v_4 (+ ?v_90 (+ ?v_80 ?v_52)))))))))))))))))))) 0)))))
(check-sat)
(exit)
